42 44 55 54 46 43 55 51 56 51 65 43 57 44 50 42 51 47 57 53 48 41 59 51 50 49 49 51 43 47 51 58 51 52 41 53 62 58 48 46 46 58 45 52 43 53 52 54 59 49 52 53 46 51 50 42 50 58 49 51 47 58 46 57 52 50 54 53 49 47 48 41 48 50 57 59 45 50 51 50 54 51 47 48 52 55 52 49 54 55 47 44 51 48 43 52 44 49 55 48 